Read MPS format model from file dat/rmp/DER_96_8192_30.mps
Reading time = 1.17 seconds
: 8288 rows, 39200 columns, 3364373 nonzeros
Gurobi Optimizer version 9.0.0 build v9.0.0rc2 (linux64)
Optimize a model with 8288 rows, 39200 columns and 3364373 nonzeros
Model fingerprint: 0x4d9f0c1d
Coefficient statistics:
  Matrix range     [1e-04, 1e+01]
  Objective range  [8e-01, 1e+03]
  Bounds range     [5e+04, 5e+04]
  RHS range        [1e+00, 1e+00]
Ordering time: 0.02s

Barrier statistics:
 AA' NZ     : 7.451e+05
 Factor NZ  : 8.348e+05 (roughly 26 MBytes of memory)
 Factor Ops : 8.738e+07 (less than 1 second per iteration)
 Threads    : 1

                  Objective                Residual
Iter       Primal          Dual         Primal    Dual     Compl     Time
   0   2.88684238e+09 -3.28534878e+08  2.77e+07 2.48e-02  9.84e+05     1s
   1   6.56137319e+07 -5.22028204e+07  5.71e+05 3.64e-12  2.16e+04     1s
   2   5.24537295e+06 -1.48577954e+07  4.43e+04 5.46e-12  1.97e+03     1s
   3   2.12204656e+05 -6.91823706e+06  1.25e+03 3.64e-12  2.16e+02     1s
   4   5.74701781e+04 -3.77107983e+05  1.41e-10 3.64e-12  1.11e+01     2s
   5   5.69430668e+04  3.55179486e+04  2.56e-10 3.64e-12  5.45e-01     2s
   6   5.66628885e+04  5.15935694e+04  2.63e-10 3.64e-12  1.29e-01     2s
   7   5.62244615e+04  5.46267739e+04  1.29e-10 5.46e-12  4.07e-02     2s
   8   5.60206792e+04  5.52423740e+04  1.90e-10 3.64e-12  1.98e-02     3s
   9   5.58874410e+04  5.54684151e+04  2.46e-10 1.82e-12  1.07e-02     3s
  10   5.57625890e+04  5.56092912e+04  4.46e-10 1.82e-12  3.90e-03     3s
  11   5.57350115e+04  5.56261647e+04  8.80e-10 3.64e-12  2.77e-03     4s
  12   5.57111781e+04  5.56342358e+04  1.79e-09 1.82e-12  1.96e-03     4s
  13   5.57059491e+04  5.56411678e+04  1.36e-09 1.82e-12  1.65e-03     4s
  14   5.56917641e+04  5.56465283e+04  1.49e-09 1.82e-12  1.15e-03     4s
  15   5.56826220e+04  5.56496167e+04  2.65e-09 1.82e-12  8.40e-04     5s
  16   5.56773048e+04  5.56519894e+04  3.45e-09 3.64e-12  6.44e-04     5s
  17   5.56715319e+04  5.56536218e+04  3.24e-09 1.82e-12  4.56e-04     5s
  18   5.56656507e+04  5.56558541e+04  9.71e-09 1.82e-12  2.49e-04     5s
  19   5.56631267e+04  5.56574500e+04  6.58e-09 1.82e-12  1.44e-04     6s
  20   5.56613363e+04  5.56580798e+04  4.77e-09 1.82e-12  8.29e-05     6s
  21   5.56603589e+04  5.56582874e+04  1.02e-08 1.82e-12  5.27e-05     6s
  22   5.56596235e+04  5.56584684e+04  1.16e-08 3.64e-12  2.94e-05     6s
  23   5.56591630e+04  5.56585641e+04  5.66e-09 1.82e-12  1.52e-05     7s
  24   5.56590118e+04  5.56586033e+04  6.27e-09 1.82e-12  1.04e-05     7s
  25   5.56588319e+04  5.56586435e+04  7.09e-09 1.82e-12  4.79e-06     7s
  26   5.56587042e+04  5.56586703e+04  6.97e-08 5.46e-12  8.61e-07     7s
  27   5.56586793e+04  5.56586771e+04  6.54e-08 3.64e-12  5.69e-08     8s
  28   5.56586777e+04  5.56586776e+04  8.90e-07 3.64e-12  1.70e-09     8s
  29   5.56586777e+04  5.56586777e+04  1.15e-06 3.64e-12  2.66e-11     8s
  30   5.56586777e+04  5.56586777e+04  2.17e-06 1.82e-12  2.97e-14     9s
  31   5.56586777e+04  5.56586777e+04  3.76e-09 2.73e-12  2.97e-17     9s

Barrier solved model in 31 iterations and 8.75 seconds
Optimal objective 5.56586777e+04

Solve time: 8.757511813
Barrier iterations: 31
